
Gurobi 10.0.0 (win64) logging started Tue Apr 16 23:26:48 2024

Set parameter LogFile to value "C:\Users\ealvarezq\Documents\GitHub\Comillas\Models\JointResearch\05. Models\06.Benchmarking\E.Representative_days_based_on_Line_Benefits_OptModel\IEEE118_mod1_ByStages_nc80/openStarNet_IEEE118_mod1_ByStages_nc80.log"
Set parameter Method to value 2
Set parameter MIPFocus to value 1
Set parameter Presolve to value 2
Set parameter RINS to value 100
Set parameter MIPGap to value 0.01
Set parameter Threads to value 9
Set parameter TimeLimit to value 259200
Set parameter IterationLimit to value 760000000
Gurobi Optimizer version 10.0.0 build v10.0.0rc2 (win64)

CPU model: Intel(R) Core(TM) i7-8700 CPU @ 3.20GHz, instruction set [SSE2|AVX|AVX2]
Thread count: 6 physical cores, 12 logical processors, using up to 9 threads

Optimize a model with 113684 rows, 83933 columns and 292603 nonzeros
Model fingerprint: 0x8581bc1e
Variable types: 83899 continuous, 34 integer (34 binary)
Coefficient statistics:
  Matrix range     [3e-04, 9e+03]
  Objective range  [1e+00, 1e+00]
  Bounds range     [1e-04, 3e+00]
  RHS range        [2e-04, 3e+00]
Presolve removed 76800 rows and 38457 columns
Presolve time: 0.42s
Presolved: 36884 rows, 45476 columns, 134888 nonzeros
Variable types: 45442 continuous, 34 integer (34 binary)
Root relaxation presolved: 36884 rows, 45476 columns, 134888 nonzeros

Root barrier log...

Ordering time: 0.01s

Barrier statistics:
 Dense cols : 34
 AA' NZ     : 1.668e+05
 Factor NZ  : 6.465e+05 (roughly 40 MB of memory)
 Factor Ops : 1.350e+07 (less than 1 second per iteration)
 Threads    : 8

                  Objective                Residual
Iter       Primal          Dual         Primal    Dual     Compl     Time
   0   8.77999155e+06 -3.92653155e+09  1.55e+01 5.50e+03  1.59e+05     1s
   1   2.07886018e+06 -1.51304960e+09  3.39e+00 1.20e-07  3.26e+04     1s
   2   5.14875114e+05 -7.64759073e+08  5.75e-01 5.73e-08  9.45e+03     1s
   3   3.18984455e+05 -1.83528175e+08  1.88e-01 2.12e-08  2.04e+03     1s
   4   2.14585318e+05 -1.91105954e+07  1.47e-02 1.82e-09  1.84e+02     1s
   5   1.18463718e+05 -4.76240390e+06  1.30e-03 4.23e-10  4.49e+01     1s
   6   5.75824894e+04 -1.50836064e+06  3.28e-04 1.32e-10  1.44e+01     1s
   7   3.07462994e+04 -3.73943006e+05  5.77e-05 3.49e-11  3.71e+00     1s
   8   1.74291942e+04 -9.43136553e+04  1.79e-05 7.71e-12  1.02e+00     1s
   9   1.13867907e+04 -4.39934961e+04  1.01e-05 1.67e-11  5.08e-01     1s
  10   7.04073739e+03 -2.44405258e+04  5.31e-06 1.23e-11  2.89e-01     1s
  11   3.09499474e+03 -9.83245737e+03  1.51e-06 1.16e-11  1.19e-01     1s
  12   1.90716621e+03 -4.12394006e+03  6.07e-07 2.07e-11  5.53e-02     1s
  13   1.49343787e+03 -1.56958292e+03  3.35e-07 1.86e-11  2.81e-02     1s
  14   1.28695140e+03 -5.07476975e+02  2.17e-07 1.23e-11  1.65e-02     1s
  15   1.10487631e+03  6.57281112e+01  1.22e-07 9.16e-12  9.53e-03     1s
  16   1.04092164e+03  3.61812498e+02  9.25e-08 8.93e-12  6.23e-03     1s
  17   9.34335935e+02  5.23893804e+02  4.47e-08 8.84e-12  3.76e-03     1s
  18   8.88867877e+02  6.78374815e+02  2.61e-08 1.43e-11  1.93e-03     1s
  19   8.67226987e+02  7.51112796e+02  1.78e-08 1.36e-11  1.06e-03     1s
  20   8.50482081e+02  7.73169110e+02  1.18e-08 6.07e-12  7.09e-04     1s
  21   8.38930865e+02  7.89750951e+02  7.74e-09 2.84e-12  4.51e-04     1s
  22   8.33520688e+02  7.97222318e+02  5.90e-09 5.39e-12  3.33e-04     1s
  23   8.26108326e+02  8.05070575e+02  3.42e-09 5.53e-12  1.93e-04     1s
  24   8.23465093e+02  8.09346820e+02  2.55e-09 1.19e-11  1.29e-04     1s
  25   8.18631127e+02  8.11711068e+02  9.88e-10 1.62e-11  6.35e-05     1s
  26   8.17459565e+02  8.13128919e+02  6.25e-10 6.62e-12  3.97e-05     1s
  27   8.16477345e+02  8.14212270e+02  1.30e-09 6.39e-12  2.08e-05     1s
  28   8.15772938e+02  8.14963828e+02  4.87e-10 1.64e-11  7.42e-06     1s
  29   8.15514158e+02  8.15220793e+02  1.09e-09 1.70e-11  2.69e-06     1s
  30   8.15424073e+02  8.15315972e+02  4.55e-10 1.16e-11  9.91e-07     1s
  31   8.15391781e+02  8.15336102e+02  2.98e-10 9.30e-12  5.11e-07     1s
  32   8.15366435e+02  8.15348314e+02  2.51e-10 7.93e-12  1.66e-07     1s
  33   8.15358375e+02  8.15353659e+02  5.11e-10 5.79e-12  4.32e-08     1s
  34   8.15355217e+02  8.15354752e+02  2.33e-09 1.49e-11  4.27e-09     1s
  35   8.15355088e+02  8.15355076e+02  4.58e-10 2.95e-11  1.11e-10     1s

Barrier solved model in 35 iterations and 1.45 seconds (1.42 work units)
Optimal objective 8.15355088e+02


Root relaxation: objective 8.153551e+02, 3300 iterations, 1.36 seconds (1.41 work units)

    Nodes    |    Current Node    |     Objective Bounds      |     Work
 Expl Unexpl |  Obj  Depth IntInf | Incumbent    BestBd   Gap | It/Node Time

     0     0  815.35508    0   23          -  815.35508      -     -    2s
H    0     0                    6508.0440593  815.35508  87.5%     -    6s
H    0     0                    2170.5888179  833.62619  61.6%     -    9s
     0     0  834.26834    0   23 2170.58882  834.26834  61.6%     -    9s
     0     0  834.26834    0   23 2170.58882  834.26834  61.6%     -   10s
     0     0  836.16419    0   22 2170.58882  836.16419  61.5%     -   11s
H    0     0                     965.5963991  836.16419  13.4%     -   12s
     0     0  836.28275    0   22  965.59640  836.28275  13.4%     -   12s
     0     0  836.72642    0   21  965.59640  836.72642  13.3%     -   14s
     0     0  836.72717    0   21  965.59640  836.72717  13.3%     -   16s
     0     0  836.75094    0   21  965.59640  836.75094  13.3%     -   16s
     0     0  836.75094    0   21  965.59640  836.75094  13.3%     -   16s
     0     0  836.75179    0   19  965.59640  836.75179  13.3%     -   18s
H    0     0                     925.3619328  836.75179  9.58%     -  112s
     0     2  836.75179    0   19  925.36193  836.75179  9.58%     -  113s
     1     4  863.14714    1   19  925.36193  836.75963  9.57%  2941  115s
     7    10     cutoff    3       925.36193  863.25103  6.71%  2038  129s
    15    11  887.52401    4   17  925.36193  870.69694  5.91%  2521  139s
    24    14     cutoff    5       925.36193  874.98915  5.44%  2761  146s
    33    17  885.45678    6   14  925.36193  882.79332  4.60%  2447  152s
    42    20  886.48928    7   12  925.36193  885.45830  4.31%  2293  158s
    51    27  897.25942    8   13  925.36193  885.45830  4.31%  2387  165s
    60    33     cutoff    9       925.36193  885.45830  4.31%  2368  170s
    86    38  896.79125    9   12  925.36193  885.45830  4.31%  1977  177s
   101    39  902.42970   11    9  925.36193  885.45830  4.31%  1879  181s
   118    40  904.61863   12    8  925.36193  885.45830  4.31%  1706  186s
   141    38     cutoff   15       925.36193  885.45830  4.31%  1575  190s
   199    34     cutoff   16       925.36193  897.05774  3.06%  1260  240s
   224    40  914.18232   14    7  925.36193  897.05774  3.06%  1244  246s
   260    34     cutoff   16       925.36193  897.05774  3.06%  1164  251s
   300    26  917.25104   14    8  925.36193  897.05774  3.06%  1100  260s
   378     6  914.72455   11   12  925.36193  902.58981  2.46%   961  266s

Cutting planes:
  Gomory: 1
  Implied bound: 144
  MIR: 356
  Flow cover: 1
  Relax-and-lift: 1

Explored 416 nodes (387404 simplex iterations) in 268.87 seconds (514.38 work units)
Thread count was 9 (of 12 available processors)

Solution count 4: 925.362 965.596 2170.59 6508.04 

Optimal solution found (tolerance 1.00e-02)
Best objective 9.253619327787e+02, best bound 9.253619327787e+02, gap 0.0000%

Gurobi 10.0.0 (win64) logging started Tue Apr 16 23:31:21 2024

Set parameter LogFile to value "C:\Users\ealvarezq\Documents\GitHub\Comillas\Models\JointResearch\05. Models\06.Benchmarking\E.Representative_days_based_on_Line_Benefits_OptModel\IEEE118_mod1_ByStages_nc80/openStarNet_IEEE118_mod1_ByStages_nc80.log"
Set parameter Method to value 2
Set parameter MIPFocus to value 1
Set parameter Presolve to value 2
Set parameter RINS to value 100
Set parameter MIPGap to value 0.01
Set parameter Threads to value 9
Set parameter TimeLimit to value 259200
Set parameter IterationLimit to value 760000000
Gurobi Optimizer version 10.0.0 build v10.0.0rc2 (win64)

CPU model: Intel(R) Core(TM) i7-8700 CPU @ 3.20GHz, instruction set [SSE2|AVX|AVX2]
Thread count: 6 physical cores, 12 logical processors, using up to 9 threads

Optimize a model with 113684 rows, 83899 columns and 281689 nonzeros
Model fingerprint: 0x469f9317
Coefficient statistics:
  Matrix range     [3e-04, 9e+03]
  Objective range  [1e+00, 1e+00]
  Bounds range     [1e-04, 3e+00]
  RHS range        [2e-04, 2e+02]
Presolve removed 84809 rows and 36861 columns
Presolve time: 0.14s
Presolved: 28875 rows, 47359 columns, 113429 nonzeros

Ordering time: 0.00s

Barrier statistics:
 AA' NZ     : 9.512e+04
 Factor NZ  : 3.802e+05 (roughly 34 MB of memory)
 Factor Ops : 5.510e+06 (less than 1 second per iteration)
 Threads    : 9

                  Objective                Residual
Iter       Primal          Dual         Primal    Dual     Compl     Time
   0   1.45028916e+07 -2.11865811e+09  8.63e+01 4.34e+02  7.91e+04     0s
   1   1.77030243e+06 -6.13593108e+08  9.39e+00 8.19e-12  1.08e+04     0s
   2   3.46793994e+05 -1.08052501e+08  1.02e+00 9.09e-12  1.38e+03     0s
   3   1.67296268e+05 -1.10719978e+07  1.91e-02 5.91e-12  1.11e+02     0s
   4   8.12909920e+04 -1.58724843e+06  6.55e-04 1.36e-11  1.61e+01     0s
   5   4.14772292e+04 -4.04840483e+05  1.77e-04 2.50e-12  4.31e+00     0s
   6   2.30811114e+04 -1.36099152e+05  6.70e-05 1.57e-12  1.54e+00     0s
   7   1.10136094e+04 -4.55772163e+04  2.30e-05 8.76e-13  5.47e-01     0s
   8   6.76599025e+03 -1.49936251e+04  1.23e-05 1.62e-12  2.10e-01     0s
   9   4.17745557e+03 -6.29276721e+03  6.52e-06 1.40e-12  1.01e-01     0s
  10   2.73296212e+03 -3.00731111e+03  3.48e-06 1.48e-12  5.55e-02     0s
  11   1.92158349e+03 -1.22381244e+03  1.83e-06 1.35e-12  3.04e-02     0s
  12   1.57761610e+03 -4.42520797e+02  1.16e-06 1.06e-12  1.95e-02     0s
  13   1.32609401e+03  1.72063142e+02  6.80e-07 1.05e-12  1.12e-02     0s
  14   1.17254070e+03  6.29983176e+02  3.97e-07 1.29e-12  5.24e-03     0s
  15   1.05843204e+03  8.14956948e+02  2.02e-07 1.19e-12  2.35e-03     0s
  16   1.00967145e+03  8.65450660e+02  1.26e-07 9.29e-13  1.39e-03     0s
  17   9.80916917e+02  8.85945655e+02  8.12e-08 1.33e-12  9.18e-04     0s
  18   9.60887162e+02  9.01732303e+02  5.09e-08 1.14e-12  5.72e-04     0s
  19   9.51445036e+02  9.10442424e+02  3.70e-08 8.85e-13  3.96e-04     0s
  20   9.42385016e+02  9.16317070e+02  2.39e-08 1.18e-12  2.52e-04     0s
  21   9.35251670e+02  9.20857521e+02  1.37e-08 2.25e-12  1.39e-04     0s
  22   9.29685858e+02  9.23002747e+02  6.14e-09 8.66e-13  6.46e-05     0s
  23   9.27612544e+02  9.23960319e+02  3.13e-09 1.67e-12  3.53e-05     0s
  24   9.26429555e+02  9.24667416e+02  1.45e-09 7.61e-13  1.70e-05     0s
  25   9.25887100e+02  9.24960829e+02  7.01e-10 8.38e-13  8.95e-06     1s
  26   9.25616914e+02  9.25180823e+02  3.28e-10 1.64e-12  4.21e-06     1s
  27   9.25472722e+02  9.25301177e+02  2.16e-10 1.64e-12  1.66e-06     1s
  28   9.25377541e+02  9.25352013e+02  1.70e-10 1.31e-12  2.47e-07     1s
  29   9.25362627e+02  9.25361370e+02  2.17e-10 1.59e-12  1.22e-08     1s
  30   9.25361939e+02  9.25361906e+02  7.54e-10 1.23e-12  3.14e-10     1s
  31   9.25361933e+02  9.25361933e+02  6.07e-11 1.09e-12  3.74e-13     1s

Barrier solved model in 31 iterations and 0.60 seconds (0.60 work units)
Optimal objective 9.25361933e+02

Crossover log...

    8168 DPushes remaining with DInf 0.0000000e+00                 1s
       0 DPushes remaining with DInf 0.0000000e+00                 1s

     292 PPushes remaining with PInf 0.0000000e+00                 1s
       0 PPushes remaining with PInf 0.0000000e+00                 1s

  Push phase complete: Pinf 0.0000000e+00, Dinf 2.3158930e-12      1s

Iteration    Objective       Primal Inf.    Dual Inf.      Time
    3461    9.2536193e+02   0.000000e+00   0.000000e+00      1s

Solved in 3461 iterations and 0.84 seconds (0.76 work units)
Optimal objective  9.253619328e+02

Gurobi 11.0.0 (linux64) logging started Wed Aug  7 00:17:47 2024

Set parameter LogFile to value "/lustre1/scratch/348/vsc34888/JointResearch/05.Models/06.Benchmarking/E.Representative_days_based_on_Line_Benefits_OptModel/IEEE118_mod1_ByStages_nc80/openStarNet_IEEE118_mod1_ByStages_nc80.log"
Set parameter Method to value 2
Set parameter MIPFocus to value 1
Set parameter Presolve to value 2
Set parameter RINS to value 100
Set parameter MIPGap to value 0.01
Set parameter Threads to value 36
Set parameter TimeLimit to value 259200
Set parameter IterationLimit to value 760000000
Gurobi Optimizer version 11.0.0 build v11.0.0rc2 (linux64 - "Rocky Linux 8.9 (Green Obsidian)")

CPU model: Intel(R) Xeon(R) Gold 6240 CPU @ 2.60GHz, instruction set [SSE2|AVX|AVX2|AVX512]
Thread count: 36 physical cores, 36 logical processors, using up to 36 threads

Optimize a model with 113683 rows, 83899 columns and 281688 nonzeros
Model fingerprint: 0x4d2f0274
Coefficient statistics:
  Matrix range     [3e-04, 9e+03]
  Objective range  [1e+00, 1e+00]
  Bounds range     [1e-04, 3e+00]
  RHS range        [2e-04, 3e+00]
Presolve removed 86012 rows and 39153 columns
Presolve time: 0.16s
Presolved: 27671 rows, 46022 columns, 110396 nonzeros

Ordering time: 0.01s

Barrier statistics:
 AA' NZ     : 9.811e+04
 Factor NZ  : 3.713e+05 (roughly 30 MB of memory)
 Factor Ops : 5.578e+06 (less than 1 second per iteration)
 Threads    : 36

                  Objective                Residual
Iter       Primal          Dual         Primal    Dual     Compl     Time
   0   1.62181174e+07 -1.65771467e+09  1.10e+02 3.60e+02  8.28e+04     0s
   1   1.52902932e+06 -5.74180558e+08  9.01e+00 6.95e-12  9.97e+03     0s
   2   3.91640237e+05 -1.07334757e+08  1.25e+00 8.51e-12  1.44e+03     0s
   3   1.84459354e+05 -1.42196578e+07  1.90e-02 7.64e-12  1.45e+02     0s
   4   9.95153565e+04 -1.68627041e+06  2.12e-03 5.46e-12  1.78e+01     0s
   5   5.83088328e+04 -4.73101728e+05  8.62e-04 1.36e-12  5.28e+00     0s
   6   4.06641095e+04 -1.71341114e+05  4.22e-04 1.82e-12  2.10e+00     0s
   7   2.75732169e+04 -7.67464822e+04  1.84e-04 9.09e-13  1.04e+00     0s
   8   2.07433217e+04 -2.76194300e+04  1.03e-04 9.09e-13  4.80e-01     0s
   9   1.65507681e+04 -6.73928683e+03  5.95e-05 9.09e-13  2.31e-01     0s
  10   1.42327816e+04  1.77496983e+03  3.70e-05 9.09e-13  1.24e-01     0s
  11   1.22443526e+04  6.32620526e+03  1.92e-05 1.36e-12  5.87e-02     0s
  12   1.08540242e+04  7.99051638e+03  7.26e-06 1.82e-12  2.84e-02     0s
  13   1.05765731e+04  9.20259179e+03  5.06e-06 9.09e-13  1.36e-02     0s
  14   1.02521398e+04  9.51691000e+03  2.61e-06 1.82e-12  7.29e-03     0s
  15   1.00829936e+04  9.65009280e+03  1.40e-06 9.09e-13  4.29e-03     0s
  16   9.97389301e+03  9.76308175e+03  6.38e-07 9.09e-13  2.09e-03     0s
  17   9.92961741e+03  9.82065319e+03  3.46e-07 9.09e-13  1.08e-03     0s
  18   9.89707341e+03  9.84904431e+03  1.42e-07 9.09e-13  4.76e-04     0s
  19   9.88565609e+03  9.86172488e+03  7.32e-08 1.82e-12  2.37e-04     0s
  20   9.87820193e+03  9.86681004e+03  2.86e-08 1.82e-12  1.13e-04     0s
  21   9.87634927e+03  9.86982005e+03  1.83e-08 9.09e-13  6.48e-05     0s
  22   9.87359928e+03  9.87192017e+03  3.09e-09 1.82e-12  1.67e-05     1s
  23   9.87301938e+03  9.87273273e+03  3.49e-10 9.09e-13  2.84e-06     1s
  24   9.87293688e+03  9.87290322e+03  6.48e-11 1.82e-12  3.34e-07     1s
  25   9.87292462e+03  9.87291897e+03  4.26e-11 1.82e-12  5.60e-08     1s
  26   9.87292339e+03  9.87292220e+03  5.49e-11 9.09e-13  1.18e-08     1s
  27   9.87292307e+03  9.87292291e+03  1.26e-10 9.09e-13  1.56e-09     1s
  28   9.87292301e+03  9.87292300e+03  5.14e-11 1.82e-12  1.65e-10     1s

Barrier solved model in 28 iterations and 0.61 seconds (0.52 work units)
Optimal objective 9.87292301e+03

Crossover log...

    8067 DPushes remaining with DInf 0.0000000e+00                 1s
       0 DPushes remaining with DInf 0.0000000e+00                 1s

     661 PPushes remaining with PInf 0.0000000e+00                 1s
       0 PPushes remaining with PInf 0.0000000e+00                 1s

  Push phase complete: Pinf 0.0000000e+00, Dinf 4.0681807e-11      1s

Extra simplex iterations after uncrush: 8
Iteration    Objective       Primal Inf.    Dual Inf.      Time
    3025    9.8729230e+03   0.000000e+00   0.000000e+00      1s

Solved in 3025 iterations and 1.02 seconds (0.66 work units)
Optimal objective  9.872923006e+03

Gurobi 11.0.0 (linux64) logging started Wed Aug  7 00:18:01 2024

Set parameter LogFile to value "/lustre1/scratch/348/vsc34888/JointResearch/05.Models/06.Benchmarking/E.Representative_days_based_on_Line_Benefits_OptModel/IEEE118_mod1_ByStages_nc80/openStarNet_IEEE118_mod1_ByStages_nc80.log"
Set parameter Method to value 2
Set parameter MIPFocus to value 1
Set parameter Presolve to value 2
Set parameter RINS to value 100
Set parameter MIPGap to value 0.01
Set parameter Threads to value 36
Set parameter TimeLimit to value 259200
Set parameter IterationLimit to value 760000000
Gurobi Optimizer version 11.0.0 build v11.0.0rc2 (linux64 - "Rocky Linux 8.9 (Green Obsidian)")

CPU model: Intel(R) Xeon(R) Gold 6240 CPU @ 2.60GHz, instruction set [SSE2|AVX|AVX2|AVX512]
Thread count: 36 physical cores, 36 logical processors, using up to 36 threads

Optimize a model with 113683 rows, 83899 columns and 281688 nonzeros
Model fingerprint: 0x4d2f0274
Coefficient statistics:
  Matrix range     [3e-04, 9e+03]
  Objective range  [1e+00, 1e+00]
  Bounds range     [1e-04, 3e+00]
  RHS range        [2e-04, 3e+00]
Presolve removed 86012 rows and 39153 columns
Presolve time: 0.16s
Presolved: 27671 rows, 46022 columns, 110396 nonzeros

Ordering time: 0.01s

Barrier statistics:
 AA' NZ     : 9.811e+04
 Factor NZ  : 3.713e+05 (roughly 30 MB of memory)
 Factor Ops : 5.578e+06 (less than 1 second per iteration)
 Threads    : 36

                  Objective                Residual
Iter       Primal          Dual         Primal    Dual     Compl     Time
   0   1.62181174e+07 -1.65771467e+09  1.10e+02 3.60e+02  8.28e+04     0s
   1   1.52902932e+06 -5.74180558e+08  9.01e+00 6.95e-12  9.97e+03     0s
   2   3.91640237e+05 -1.07334757e+08  1.25e+00 8.51e-12  1.44e+03     0s
   3   1.84459354e+05 -1.42196578e+07  1.90e-02 7.64e-12  1.45e+02     0s
   4   9.95153565e+04 -1.68627041e+06  2.12e-03 5.46e-12  1.78e+01     0s
   5   5.83088328e+04 -4.73101728e+05  8.62e-04 1.36e-12  5.28e+00     0s
   6   4.06641095e+04 -1.71341114e+05  4.22e-04 1.82e-12  2.10e+00     0s
   7   2.75732169e+04 -7.67464822e+04  1.84e-04 9.09e-13  1.04e+00     0s
   8   2.07433217e+04 -2.76194300e+04  1.03e-04 9.09e-13  4.80e-01     0s
   9   1.65507681e+04 -6.73928683e+03  5.95e-05 9.09e-13  2.31e-01     0s
  10   1.42327816e+04  1.77496983e+03  3.70e-05 9.09e-13  1.24e-01     0s
  11   1.22443526e+04  6.32620526e+03  1.92e-05 1.36e-12  5.87e-02     0s
  12   1.08540242e+04  7.99051638e+03  7.26e-06 1.82e-12  2.84e-02     0s
  13   1.05765731e+04  9.20259179e+03  5.06e-06 9.09e-13  1.36e-02     0s
  14   1.02521398e+04  9.51691000e+03  2.61e-06 1.82e-12  7.29e-03     0s
  15   1.00829936e+04  9.65009280e+03  1.40e-06 9.09e-13  4.29e-03     0s
  16   9.97389301e+03  9.76308175e+03  6.38e-07 9.09e-13  2.09e-03     0s
  17   9.92961741e+03  9.82065319e+03  3.46e-07 9.09e-13  1.08e-03     0s
  18   9.89707341e+03  9.84904431e+03  1.42e-07 9.09e-13  4.76e-04     0s
  19   9.88565609e+03  9.86172488e+03  7.32e-08 1.82e-12  2.37e-04     0s
  20   9.87820193e+03  9.86681004e+03  2.86e-08 1.82e-12  1.13e-04     0s
  21   9.87634927e+03  9.86982005e+03  1.83e-08 9.09e-13  6.48e-05     0s
  22   9.87359928e+03  9.87192017e+03  3.09e-09 1.82e-12  1.67e-05     0s
  23   9.87301938e+03  9.87273273e+03  3.49e-10 9.09e-13  2.84e-06     0s
  24   9.87293688e+03  9.87290322e+03  6.48e-11 1.82e-12  3.34e-07     1s
  25   9.87292462e+03  9.87291897e+03  4.26e-11 1.82e-12  5.60e-08     1s
  26   9.87292339e+03  9.87292220e+03  5.49e-11 9.09e-13  1.18e-08     1s
  27   9.87292307e+03  9.87292291e+03  1.26e-10 9.09e-13  1.56e-09     1s
  28   9.87292301e+03  9.87292300e+03  5.14e-11 1.82e-12  1.65e-10     1s

Barrier solved model in 28 iterations and 0.55 seconds (0.52 work units)
Optimal objective 9.87292301e+03

Crossover log...

    8067 DPushes remaining with DInf 0.0000000e+00                 1s
       0 DPushes remaining with DInf 0.0000000e+00                 1s

     661 PPushes remaining with PInf 0.0000000e+00                 1s
       0 PPushes remaining with PInf 0.0000000e+00                 1s

  Push phase complete: Pinf 0.0000000e+00, Dinf 4.0681807e-11      1s

Extra simplex iterations after uncrush: 8
Iteration    Objective       Primal Inf.    Dual Inf.      Time
    3025    9.8729230e+03   0.000000e+00   0.000000e+00      1s

Solved in 3025 iterations and 0.92 seconds (0.66 work units)
Optimal objective  9.872923006e+03
